Name: EasyAcademy17
Courses: 135
Rooms: 27
Days: 5
Periods_per_day: 23
Curricula: 43
Min_Max_Daily_Lectures: 4 8
UnavailabilityConstraints: 0
RoomConstraints: 0

COURSES:
c12659 t2768 12 3 0 1
c12661 t2770 6 2 0 1
c12672 t2778 9 3 0 1
c12673 t2766 9 3 0 1
c12674 t2833 3 1 0 1
c12675 t2780 9 2 10 1
c12689 t2789 9 3 0 1
c12693 t2792 8 2 0 1
c12697 t2795 1 1 0 0
c12712 t2804 1 1 95 0
c12720 t2808 1 1 0 0
c12737 t2815 9 3 0 1
c12745 t2819 1 1 0 0
c12746 t2820 1 1 0 0
c12747 t2818 1 1 0 0
c12748 t2823 1 1 0 0
c12749 t2780 1 1 0 0
c12765 t2784 9 3 0 1
c12766 t2783 9 3 0 1
c12767 t2782 8 2 0 1
c12772 t2829 9 3 0 1
c12773 t2832 9 3 0 1
c12777 t2764 3 1 0 1
c12778 t2764 6 2 0 1
c12780 t2786 1 1 0 0
c12781 t2786 12 3 0 1
c12782 t2827 9 3 0 1
c12783 t2793 9 3 0 1
c12786 t2836 12 2 0 1
c12787 t2837 8 2 0 1
c12790 t2838 9 3 0 1
c12794 t3684 1 1 0 0
c12798 t2810 8 2 0 1
c12821 t2844 9 3 0 1
c12822 t2833 9 3 0 1
c12824 t2829 6 2 0 1
c12825 t2847 9 3 0 1
c12826 t3774 1 1 0 0
c12827 no_teacher1 1 1 0 0
c12828 no_teacher2 1 1 0 0
c12829 no_teacher3 1 1 0 0
c12830 t2787 1 1 0 0
c12831 t3776 1 1 0 0
c12832 t2843 1 1 0 0
c12833 t3778 1 1 0 0
c12834 t2812 1 1 0 0
c12835 t2840 1 1 0 0
c12836 no_teacher4 1 1 0 0
c12837 no_teacher5 1 1 0 0
c12838 t2841 1 1 0 0
c12839 no_teacher6 1 1 0 0
c12840 t2805 1 1 0 0
c12841 t2810 1 1 0 0
c12842 no_teacher7 1 1 0 0
c12843 no_teacher8 1 1 0 0
c12844 t2812 1 1 0 0
c12845 t2841 1 1 0 0
c12846 t2812 1 1 0 0
c12847 t2841 1 1 0 0
c13013 t2770 8 2 0 1
c13014 t2767 12 3 0 1
c13015 t2773 12 3 0 1
c13016 t2776 6 2 0 1
c13017 t3754 8 2 0 1
c13018 t2777 8 2 0 1
c13019 t2781 6 2 0 1
c13020 t2783 9 3 0 1
c13021 t2784 9 3 0 1
c13022 t2787 6 2 0 1
c13023 t3793 6 2 0 1
c13024 t2782 6 2 0 1
c13025 t2788 9 3 0 1
c13026 t2794 1 1 0 0
c13027 t3795 1 1 0 0
c13028 t2796 1 1 0 0
c13029 t2800 1 1 0 0
c13030 t2794 1 1 0 0
c13031 t2803 1 1 0 0
c13032 t3756 1 1 0 0
c13033 t3815 1 1 0 0
c13034 t3805 6 2 0 1
c13035 t2806 6 2 0 1
c13036 t2807 8 2 0 1
c13038 t3758 8 2 0 1
c13039 t3760 6 2 0 1
c13040 t3797 6 2 0 1
c13041 t2811 8 2 0 1
c13042 t2812 6 2 0 1
c13043 t3799 6 2 0 1
c13044 t3762 8 2 0 1
c13045 t3760 6 2 0 1
c13046 t2788 9 3 0 1
c13047 no_teacher9 1 1 0 0
c13048 t2816 1 1 0 0
c13049 t3877 1 1 0 0
c13050 t2817 1 1 0 0
c13051 t2818 1 1 0 0
c13052 t3764 1 1 0 0
c13053 t2826 1 1 0 0
c13054 t2796 1 1 0 0
c13055 t3766 1 1 0 0
c13056 no_teacher10 1 1 0 0
c13057 no_teacher11 1 1 0 0
c13058 t3879 1 1 0 0
c13059 no_teacher12 1 1 0 0
c13061 t2827 9 3 0 1
c13062 t2786 12 3 0 1
c13063 t2792 8 2 0 1
c13064 t3540 8 2 0 1
c13065 t2828 9 3 0 1
c13066 t2777 10 3 0 1
c13067 t2829 11 3 0 1
c13068 t2833 11 3 0 1
c13069 t3682 6 2 0 1
c13070 t2835 8 2 0 1
c13071 t2835 11 3 0 1
c13072 t2781 12 3 0 1
c13073 t2771 10 3 0 1
c13074 t2839 12 3 0 1
c13075 t2840 8 2 0 1
c13076 t3768 17 3 0 1
c13077 t3770 8 2 0 1
c13078 t2787 6 2 0 1
c13079 t2804 9 3 0 1
c13080 t2788 9 3 0 1
c13081 t2788 1 1 0 0
c13082 t2814 1 1 0 0
c13083 t3772 8 2 0 1
c13084 t3538 8 2 0 1
c13085 t2812 6 2 0 1
c13086 t2811 6 2 0 1
c13087 t2843 6 2 0 1
c13088 t2807 8 2 0 1
c16234 t3882 1 1 90 0
c16235 t3882 1 1 100 0

ROOMS:
r437 50 2
r438 50 2
r439 63 2
r440 25 2
r441 55 2
r442 85 2
r515 42 2
r443 60 2
r445 165 2
r446 63 2
r447 54 2
r448 45 2
r449 45 2
r450 36 2
r444 11 2
r451 45 1
r452 18 1
r432 58 1
r453 18 1
r454 18 1
r455 18 1
r456 50 1
r457 22 1
r433 81 1
r434 56 1
r435 20 1
r516 30 0

CURRICULA:
cu835 10 c13078 c13085 c12821 c12822 c12824 c12825 c13084 c13086 c13087 c13088
cu836 14 c13078 c13080 c13085 c12821 c12822 c12824 c12825 c13021 c13079 c13081 c13084 c13086 c13087 c13088
cu837 16 c13078 c13083 c13085 c12821 c12822 c12824 c12825 c13021 c13079 c13080 c13081 c13082 c13084 c13086 c13087 c13088
cu838 9 c13085 c12821 c12822 c12824 c12825 c13084 c13086 c13087 c13088
cu839 1 c12798
cu840 2 c13076 c13077
cu841 1 c13075
cu842 3 c13056 c13057 c13059
cu843 2 c13058 c13059
cu844 4 c12689 c12693 c13025 c13084
cu845 4 c12689 c12693 c13024 c13025
cu846 8 c13019 c13020 c13022 c13023 c12821 c12822 c12824 c12825
cu847 7 c13022 c13023 c12821 c12822 c12824 c12825 c13021
cu848 10 c12826 c12827 c12828 c12829 c12830 c12831 c12836 c12837 c12838 c12839
cu849 10 c12826 c12827 c12828 c12829 c12830 c12831 c12844 c12845 c12846 c12847
cu850 10 c12826 c12827 c12828 c12829 c12830 c12831 c12832 c12833 c12834 c12835
cu851 10 c12826 c12827 c12828 c12829 c12830 c12831 c12840 c12841 c12842 c12843
cu852 14 c12773 c13028 c16234 c12697 c12821 c13026 c13027 c13029 c13030 c13031 c13032 c13049 c13051 c13054
cu853 5 c12787 c12790 c13071 c13074 c12794
cu854 13 c13072 c13073 c13074 c12674 c12675 c12745 c12772 c12773 c12777 c12778 c12794 c13066 c16234
cu855 13 c13071 c13074 c12674 c12675 c12766 c12772 c12773 c12777 c12778 c12786 c12794 c13073 c16234
cu856 14 c13071 c13074 c12674 c12675 c12745 c12766 c12772 c12773 c12777 c12778 c12794 c13066 c13073 c16234
cu857 12 c12780 c12781 c12782 c12674 c12675 c12712 c12772 c12773 c12777 c12778 c13069 c16234
cu858 7 c12780 c12781 c12782 c12783 c13070 c13067 c13068
cu859 12 c12782 c13065 c12674 c12675 c12772 c12773 c12777 c12778 c12781 c13067 c13068 c16234
cu860 8 c12780 c12781 c12782 c13065 c12745 c13066 c13067 c13068
cu861 6 c12765 c13061 c13063 c13064 c12712 c13062
cu862 6 c13015 c13064 c12745 c12766 c12767 c13066
cu863 11 c12745 c13064 c12674 c12675 c12772 c12773 c12777 c12778 c13067 c13068 c16234
cu864 4 c13061 c13064 c12745 c13066
cu865 11 c13041 c13042 c13046 c12674 c12675 c12737 c12772 c12773 c12777 c12778 c16234
cu866 10 c13043 c13046 c12674 c12675 c12737 c12772 c12773 c12777 c12778 c16234
cu867 11 c13044 c13045 c13046 c12674 c12675 c12737 c12772 c12773 c12777 c12778 c16234
cu868 2 c13035 c13040
cu869 3 c13036 c13038 c13040
cu870 3 c12720 c13039 c13040
cu871 11 c13034 c12674 c12675 c12712 c12772 c12773 c12777 c12778 c12781 c12790 c16234
cu872 12 c13033 c13034 c12674 c12675 c12712 c12772 c12773 c12777 c12778 c12781 c12790 c16234
cu874 12 c12672 c12673 c13016 c13017 c12674 c12675 c12772 c12773 c12777 c12778 c13018 c16235
cu875 4 c12661 c13013 c13014 c13015
cu876 1 c12659
cu877 17 c12674 c12745 c12746 c12747 c12748 c12749 c12777 c13029 c13053 c13055 c12675 c12821 c13049 c13050 c13051 c13052 c13054
cu878 3 c12697 c13047 c13048

UNAVAILABILITY_CONSTRAINTS:

ROOM_CONSTRAINTS:

END.
